100
32
11
10
4
26
8
13
12
8
13
18
12
1
10
1
16
8
25
12
17
1
3
3
5
1
1
16
6
2
1
3
1
3
1
3
1
1
2
1
1
4
3
17
2
1
1
17
3
3
19
9
1
6
1
18
1
17
1
3
4
17
18
3
2
3
4
4
1
3
2
19
7
1
1
19
4
1
3
1
6
4
18
5
3
2
5
3
2
3
1
1
2
2
3
3
1
1
1
1
1
2